15
-1 232 213 666 574 348 421 349 479 345 624 650 746 51 581 
232 -1 173 608 351 222 308 446 329 207 410 420 592 268 535 
213 173 -1 471 410 390 207 277 502 140 563 500 533 214 390 
666 608 471 -1 557 825 305 416 908 406 862 641 304 646 87 
574 351 410 557 -1 451 318 647 460 288 323 96 366 599 527 
348 222 390 825 451 -1 521 649 131 420 323 480 769 398 755 
421 308 207 305 318 521 -1 345 603 101 579 414 327 419 243 
349 446 277 416 647 649 345 -1 770 361 839 742 625 307 333 
479 329 502 908 460 131 603 770 -1 505 238 462 810 529 844 
345 207 140 406 288 420 101 361 505 -1 503 382 403 353 339 
624 410 563 862 323 323 579 839 238 503 -1 281 690 668 817 
650 420 500 641 96 480 414 742 462 382 281 -1 421 679 617 
746 592 533 304 366 769 327 625 810 403 690 421 -1 746 335 
51 268 214 646 599 398 419 307 529 353 668 679 746 -1 559 
581 535 390 87 527 755 243 333 844 339 817 617 335 559 -1 
